results_rootrelaxation/bin012_060_029.srr.sol
solution status: optimal solution found
objective value:                                    2
_var720_                           0.0555555555555548 	(obj:0)
_var721_                            0.222222222222223 	(obj:0)
_var727_                            0.444444444444444 	(obj:0)
_var731_                            0.055555555555555 	(obj:1)
_var739_                            0.111111111111112 	(obj:1)
_var741_                           0.0555555555555559 	(obj:1)
_var774_                           0.0555555555555549 	(obj:0)
_var803_                            0.111111111111111 	(obj:0)
_var810_                            0.277777777777778 	(obj:0)
_var827_                           0.0555555555555553 	(obj:0)
_var829_                            0.222222222222222 	(obj:0)
_var835_                            0.166666666666667 	(obj:0)
_var836_                            0.333333333333333 	(obj:0)
_var839_                            0.111111111111111 	(obj:1)
_var840_                            0.111111111111111 	(obj:1)
_var841_                            0.833333333333334 	(obj:0)
_var842_                            0.222222222222222 	(obj:0)
_var844_                            0.666666666666667 	(obj:0)
_var846_                            0.555555555555556 	(obj:0)
_var848_                            0.111111111111111 	(obj:0)
_var850_                           0.0555555555555556 	(obj:1)
_var853_                           0.0555555555555549 	(obj:0)
_var862_                            0.277777777777778 	(obj:0)
_var866_                            0.111111111111111 	(obj:0)
_var872_                            0.444444444444444 	(obj:0)
_var879_                           0.0555555555555554 	(obj:1)
_var880_                            0.277777777777778 	(obj:0)
_var882_                            0.611111111111111 	(obj:0)
_var883_                           0.0555555555555559 	(obj:1)
_var886_                            0.111111111111111 	(obj:0)
_var891_                            0.111111111111111 	(obj:0)
_var893_                            0.277777777777777 	(obj:1)
_var896_                            0.166666666666666 	(obj:0)
_var897_                            0.555555555555556 	(obj:0)
_var898_                             0.11111111111111 	(obj:1)
_var900_                           0.0555555555555556 	(obj:0)
_var902_                            0.111111111111111 	(obj:1)
_var905_                            0.444444444444445 	(obj:0)
_var906_                            0.166666666666667 	(obj:0)
_var910_                            0.111111111111111 	(obj:1)
_var913_                            0.277777777777778 	(obj:0)
_var914_                            0.166666666666667 	(obj:0)
_var915_                            0.111111111111112 	(obj:1)
_var918_                            0.111111111111111 	(obj:0)
_var921_                           0.0555555555555557 	(obj:1)
_var922_                           0.0555555555555556 	(obj:0)
_var923_                            0.111111111111111 	(obj:0)
_var927_                            0.277777777777778 	(obj:1)
_var929_                            0.222222222222222 	(obj:1)
_var932_                           0.0555555555555554 	(obj:1)
_var933_                           0.0555555555555555 	(obj:0)
_var934_                            0.111111111111111 	(obj:0)
_var937_                           0.0555555555555551 	(obj:0)
_var938_                            0.166666666666666 	(obj:0)
_var939_                            0.166666666666667 	(obj:0)
_var940_                            0.055555555555555 	(obj:1)
